letting input=[14,31,44,41,47,7,48,39,32,15,24,50,42,9,46,31,37,4,24,39,44,10,46,9,36]
letting output=[20,15,51,9,81,39,63,43,27,8,56,71,11,46,14,90,38,63,73,89,60,79,55,12,14,36,42,82,6,42,60,69,43,69,49,81,55,87,50,77,25,11,36,30,9]
letting MAX_OPS=999
letting num_registers=0
